Grasp exp. instance_n_15_m_5_id_4.lp tipoLifted 0 szPool 5 nIteration 100 alpha 0.4 
Academic license - for non-commercial use only
Read LP format model from file ../input/instancesGenerated/instance_n_15_m_5_id_4.lp
Reading time = 0.00 seconds
: 5 rows, 15 columns, 75 nonzeros
Optimize a model with 5 rows, 15 columns and 75 nonzeros
Variable types: 0 continuous, 15 integer (15 binary)
Coefficient statistics:
  Matrix range     [1e+00, 1e+01]
  Objective range  [1e+00, 1e+01]
  Bounds range     [1e+00, 1e+00]
  RHS range        [3e+01, 4e+01]
Found heuristic solution: objective 41.0000000

Explored 0 nodes (0 simplex iterations) in 0.00 seconds
Thread count was 1 (of 8 available processors)

Solution count 1: 41 
No other solutions better than 0

Solution limit reached
Best objective 4.100000000000e+01, best bound -, gap -
C_1:	 7.00 x_1  = 0.769921 + 4.00 x_2  = 0.000000 + 7.00 x_3  = 0.000000 + 3.00 x_4  = 0.825006 + 1.00 x_5  = 0.000000 + 3.00 x_6  = 1.000000 + 3.00 x_7  = 1.000000 + 9.00 x_8  = 0.000000 + 2.00 x_9  = 0.169101 + 2.00 x_10  = 1.000000 + 10.00 x_11  = 0.000000 + 2.00 x_12  = 0.404817 + 5.00 x_13  = 1.000000 + 6.00 x_14  = 1.000000 + 5.00 x_15  = 1.000000 <= 34.00
C_2:	 6.00 x_1  = 0.769921 + 3.00 x_2  = 0.000000 + 3.00 x_3  = 0.000000 + 3.00 x_4  = 0.825006 + 2.00 x_5  = 0.000000 + 5.00 x_6  = 1.000000 + 3.00 x_7  = 1.000000 + 6.00 x_8  = 0.000000 + 10.00 x_9  = 0.169101 + 4.00 x_10  = 1.000000 + 2.00 x_11  = 0.000000 + 3.00 x_12  = 0.404817 + 2.00 x_13  = 1.000000 + 2.00 x_14  = 1.000000 + 1.00 x_15  = 1.000000 <= 27.00
C_3:	 9.00 x_1  = 0.769921 + 8.00 x_2  = 0.000000 + 6.00 x_3  = 0.000000 + 7.00 x_4  = 0.825006 + 1.00 x_5  = 0.000000 + 6.00 x_6  = 1.000000 + 1.00 x_7  = 1.000000 + 5.00 x_8  = 0.000000 + 4.00 x_9  = 0.169101 + 4.00 x_10  = 1.000000 + 6.00 x_11  = 0.000000 + 4.00 x_12  = 0.404817 + 5.00 x_13  = 1.000000 + 3.00 x_14  = 1.000000 + 1.00 x_15  = 1.000000 <= 35.00
C_4:	 2.00 x_1  = 0.769921 + 8.00 x_2  = 0.000000 + 6.00 x_3  = 0.000000 + 6.00 x_4  = 0.825006 + 2.00 x_5  = 0.000000 + 7.00 x_6  = 1.000000 + 2.00 x_7  = 1.000000 + 4.00 x_8  = 0.000000 + 4.00 x_9  = 0.169101 + 1.00 x_10  = 1.000000 + 8.00 x_11  = 0.000000 + 7.00 x_12  = 0.404817 + 6.00 x_13  = 1.000000 + 1.00 x_14  = 1.000000 + 9.00 x_15  = 1.000000 <= 36.00
C_5:	 6.00 x_1  = 0.769921 + 9.00 x_2  = 0.000000 + 6.00 x_3  = 0.000000 + 1.00 x_4  = 0.825006 + 7.00 x_5  = 0.000000 + 8.00 x_6  = 1.000000 + 6.00 x_7  = 1.000000 + 8.00 x_8  = 0.000000 + 3.00 x_9  = 0.169101 + 1.00 x_10  = 1.000000 + 1.00 x_11  = 0.000000 + 10.00 x_12  = 0.404817 + 6.00 x_13  = 1.000000 + 8.00 x_14  = 1.000000 + 2.00 x_15  = 1.000000 <= 41.00
Solution initial: 59.863951 
Number Constraints Used in Cover:5
GRASP Method!
Number cuts repeat: 0
value: 59.863951
Number Constraints Used in Cover:14
GRASP Method!
Number cuts repeat: 0
value: 59.863951
Number Constraints Used in Cover:19
GRASP Method!
Number cuts repeat: 0
value: 59.863951
Number Constraints Used in Cover:27
GRASP Method!
Number cuts repeat: 0
value: 59.863951
Number Constraints Used in Cover:28
GRASP Method!
Number cuts repeat: 0
value: 59.863951
Number Constraints Used in Cover:32
GRASP Method!
Number cuts repeat: 0
value: 59.863951
Number Constraints Used in Cover:34
GRASP Method!
Number cuts repeat: 0
value: 59.863951
Number Constraints Used in Cover:36
GRASP Method!
Number cuts repeat: 0
value: 59.863951
Number Constraints Used in Cover:40
GRASP Method!
Number cuts repeat: 0
value: 59.863951
Number Constraints Used in Cover:45
GRASP Method!
Number cuts repeat: 0
value: 59.863951
Number Constraints Used in Cover:45
GRASP Method!
Number cuts repeat: 0
value: 59.863951
Number Constraints Used in Cover:48
GRASP Method!
Number cuts repeat: 0
value: 59.863951
Number Constraints Used in Cover:54
GRASP Method!
Number cuts repeat: 0
value: 59.863951
Number Constraints Used in Cover:62
GRASP Method!
Number cuts repeat: 0
value: 59.863951
Number Constraints Used in Cover:73
GRASP Method!
Number cuts repeat: 0
value: 59.863951
Number Constraints Used in Cover:79
GRASP Method!
Number cuts repeat: 0
value: 59.863951
Number Constraints Used in Cover:88
GRASP Method!
Number cuts repeat: 0
value: 59.863951
Number Constraints Used in Cover:94
GRASP Method!
Number cuts repeat: 0
value: 59.863951
Number Constraints Used in Cover:98
GRASP Method!
Number cuts repeat: 0
value: 59.863951
Number Constraints Used in Cover:98
GRASP Method!
Number cuts repeat: 0
value: 59.863951
Number Constraints Used in Cover:104
GRASP Method!
Number cuts repeat: 0
value: 59.863951
Number Constraints Used in Cover:109
GRASP Method!
Number cuts repeat: 0
value: 59.863951
Number Constraints Used in Cover:118
GRASP Method!
Number cuts repeat: 0
value: 59.863951
Number Constraints Used in Cover:119
GRASP Method!
Number cuts repeat: 0
value: 59.863951
Number Constraints Used in Cover:123
GRASP Method!
Number cuts repeat: 0
value: 59.863951
Number Constraints Used in Cover:130
GRASP Method!
Number cuts repeat: 0
value: 59.863951
Number Constraints Used in Cover:132
GRASP Method!
Number cuts repeat: 0
value: 59.863951
Number Constraints Used in Cover:132
GRASP Method!
Number cuts repeat: 0
value: 59.863951
Number Constraints Used in Cover:132
GRASP Method!
Number cuts repeat: 0
value: 59.863951
Number Constraints Used in Cover:134
GRASP Method!
Number cuts repeat: 0
value: 59.863951
Number Constraints Used in Cover:138
GRASP Method!
Number cuts repeat: 0
value: 59.863951
Number Constraints Used in Cover:138
GRASP Method!
Number cuts repeat: 0
value: 59.863951
Number Constraints Used in Cover:141
GRASP Method!
Number cuts repeat: 0
value: 59.863951
Number Constraints Used in Cover:143
GRASP Method!
Number cuts repeat: 0
value: 59.863951
Number Constraints Used in Cover:146
GRASP Method!
Number cuts repeat: 0
value: 59.863951
Number Constraints Used in Cover:148
GRASP Method!
Number cuts repeat: 0
value: 59.863951
Number Constraints Used in Cover:152
GRASP Method!
Number cuts repeat: 0
value: 59.863951
Number Constraints Used in Cover:153
GRASP Method!
Number cuts repeat: 0
value: 59.863951
Number Constraints Used in Cover:156
GRASP Method!
Number cuts repeat: 0
value: 59.863951
Number Constraints Used in Cover:158
GRASP Method!
Number cuts repeat: 0
value: 59.863951
Number Constraints Used in Cover:158
GRASP Method!
Number cuts repeat: 0
value: 59.863951
Number Constraints Used in Cover:158
GRASP Method!
Number cuts repeat: 0
value: 59.863951
Number Constraints Used in Cover:163
GRASP Method!
Number cuts repeat: 0
value: 59.863951
Number Constraints Used in Cover:163
GRASP Method!
Number cuts repeat: 0
value: 59.863951
Number Constraints Used in Cover:167
GRASP Method!
Number cuts repeat: 0
value: 59.863951
Number Constraints Used in Cover:172
GRASP Method!
Number cuts repeat: 0
value: 59.863951
Number Constraints Used in Cover:175
GRASP Method!
Number cuts repeat: 0
value: 59.863951
Number Constraints Used in Cover:178
GRASP Method!
Number cuts repeat: 0
value: 59.863951
Number Constraints Used in Cover:183
GRASP Method!
Number cuts repeat: 0
value: 59.863951
Number Constraints Used in Cover:190
GRASP Method!
Number cuts repeat: 0
value: 59.863951
Number Constraints Used in Cover:194
GRASP Method!
Number cuts repeat: 0
value: 59.863951
Number Constraints Used in Cover:201
GRASP Method!
Number cuts repeat: 0
value: 59.863951
Number Constraints Used in Cover:208
GRASP Method!
Number cuts repeat: 0
value: 59.863951
Number Constraints Used in Cover:212
GRASP Method!
Number cuts repeat: 0
value: 59.863951
Number Constraints Used in Cover:217
GRASP Method!
Number cuts repeat: 0
value: 59.863951
Number Constraints Used in Cover:222
GRASP Method!
Number cuts repeat: 0
value: 59.863951
Number Constraints Used in Cover:225
GRASP Method!
Number cuts repeat: 0
value: 59.863951
Number Constraints Used in Cover:228
GRASP Method!
Number cuts repeat: 0
value: 59.863951
Number Constraints Used in Cover:233
GRASP Method!
Number cuts repeat: 0
value: 59.863951
Number Constraints Used in Cover:237
GRASP Method!
Number cuts repeat: 0
value: 59.863951
Number Constraints Used in Cover:243
GRASP Method!
Number cuts repeat: 0
value: 59.863951
Number Constraints Used in Cover:248
GRASP Method!
Number cuts repeat: 0
value: 59.863951
Number Constraints Used in Cover:254
GRASP Method!
Number cuts repeat: 0
value: 59.863951
Number Constraints Used in Cover:259
GRASP Method!
Number cuts repeat: 0
value: 59.863951
Number Constraints Used in Cover:263
GRASP Method!
Number cuts repeat: 0
value: 59.863951
Number Constraints Used in Cover:271
GRASP Method!
Number cuts repeat: 0
value: 59.863951
Number Constraints Used in Cover:274
GRASP Method!
Number cuts repeat: 0
value: 59.863951
Number Constraints Used in Cover:282
GRASP Method!
Number cuts repeat: 0
value: 59.863951
Number Constraints Used in Cover:289
GRASP Method!
Number cuts repeat: 0
value: 59.863951
Number Constraints Used in Cover:296
GRASP Method!
Number cuts repeat: 0
value: 59.863951
Number Constraints Used in Cover:298
GRASP Method!
Number cuts repeat: 0
value: 59.863951
Number Constraints Used in Cover:304
GRASP Method!
Number cuts repeat: 0
value: 59.863951
Number Constraints Used in Cover:309
GRASP Method!
Number cuts repeat: 0
value: 59.863951
Number Constraints Used in Cover:312
GRASP Method!
Number cuts repeat: 0
value: 59.863951
Number Constraints Used in Cover:321
GRASP Method!
Number cuts repeat: 0
value: 59.863951
Number Constraints Used in Cover:323
GRASP Method!
Number cuts repeat: 0
value: 59.863951
Number Constraints Used in Cover:326
GRASP Method!
Number cuts repeat: 0
value: 59.863951
Number Constraints Used in Cover:334
GRASP Method!
Number cuts repeat: 0
value: 59.863951
Number Constraints Used in Cover:338
GRASP Method!
Number cuts repeat: 0
value: 59.863951
Number Constraints Used in Cover:340
GRASP Method!
Number cuts repeat: 0
value: 59.863951
Number Constraints Used in Cover:345
GRASP Method!
Number cuts repeat: 0
value: 59.863951
Number Constraints Used in Cover:349
GRASP Method!
Number cuts repeat: 0
value: 59.863951
Number Constraints Used in Cover:355
GRASP Method!
Number cuts repeat: 0
value: 59.863951
Number Constraints Used in Cover:360
GRASP Method!
Number cuts repeat: 0
value: 59.863951
Number Constraints Used in Cover:365
GRASP Method!
Number cuts repeat: 0
value: 59.863951
Number Constraints Used in Cover:368
GRASP Method!
Number cuts repeat: 0
value: 59.863951
Number Constraints Used in Cover:372
GRASP Method!
Number cuts repeat: 0
value: 59.863951
Number Constraints Used in Cover:373
GRASP Method!
Number cuts repeat: 0
value: 59.863951
Number Constraints Used in Cover:378
GRASP Method!
Number cuts repeat: 0
value: 59.863951
Number Constraints Used in Cover:380
GRASP Method!
Number cuts repeat: 0
value: 59.863951
Number Constraints Used in Cover:384
GRASP Method!
Number cuts repeat: 0
value: 59.863951
Number Constraints Used in Cover:389
GRASP Method!
Number cuts repeat: 0
value: 59.863951
Number Constraints Used in Cover:389
GRASP Method!
Number cuts repeat: 0
value: 59.863951
Number Constraints Used in Cover:393
GRASP Method!
Number cuts repeat: 0
value: 59.863951
Number Constraints Used in Cover:394
GRASP Method!
Number cuts repeat: 0
value: 59.863951
Number Constraints Used in Cover:397
GRASP Method!
Number cuts repeat: 0
value: 59.863951
Number Constraints Used in Cover:399
GRASP Method!
Number cuts repeat: 0
value: 59.863951
Number Constraints Used in Cover:400
GRASP Method!
Number cuts repeat: 0
value: 59.863951
Number Constraints Used in Cover:402
GRASP Method!
Number cuts repeat: 0
value: 59.863951
Number Constraints Used in Cover:406
GRASP Method!
Number cuts repeat: 0
value: 59.863951
Number Constraints Used in Cover:410
GRASP Method!
Number cuts repeat: 0
value: 59.863951
Number Constraints Used in Cover:412
GRASP Method!
Number cuts repeat: 0
value: 59.863951
Number Constraints Used in Cover:418
GRASP Method!
Number cuts repeat: 0
value: 59.863951
Number Constraints Used in Cover:422
GRASP Method!
Number cuts repeat: 0
value: 59.863951
Number Constraints Used in Cover:426
GRASP Method!
Number cuts repeat: 0
value: 59.863951
Number Constraints Used in Cover:430
GRASP Method!
Number cuts repeat: 0
value: 59.863951
Number Constraints Used in Cover:431
GRASP Method!
Number cuts repeat: 0
value: 59.863951
Number Constraints Used in Cover:434
GRASP Method!
Number cuts repeat: 0
value: 59.863951
Number Constraints Used in Cover:436
GRASP Method!
Number cuts repeat: 0
value: 59.863951
Number Constraints Used in Cover:437
GRASP Method!
Number cuts repeat: 0
value: 59.863951
Number Constraints Used in Cover:439
GRASP Method!
Number cuts repeat: 0
value: 59.863951
Number Constraints Used in Cover:440
GRASP Method!
Number cuts repeat: 0
value: 59.863951
Number Constraints Used in Cover:441
GRASP Method!
Number cuts repeat: 0
value: 59.863951
Number Constraints Used in Cover:442
GRASP Method!
Number cuts repeat: 0
value: 59.863951
Number Constraints Used in Cover:445
GRASP Method!
Number cuts repeat: 0
value: 59.863951
Number Constraints Used in Cover:447
GRASP Method!
Number cuts repeat: 0
value: 59.863951
Number Constraints Used in Cover:449
GRASP Method!
Number cuts repeat: 0
value: 59.863951
Number Constraints Used in Cover:451
GRASP Method!
Number cuts repeat: 0
value: 59.863951
Number Constraints Used in Cover:452
GRASP Method!
Number cuts repeat: 0
value: 59.863951
Number Constraints Used in Cover:455
GRASP Method!
Number cuts repeat: 0
value: 59.863951
Number Constraints Used in Cover:460
GRASP Method!
Number cuts repeat: 0
value: 59.863951
Number Constraints Used in Cover:464
GRASP Method!
Number cuts repeat: 0
value: 59.863951
Number Constraints Used in Cover:465
GRASP Method!
Number cuts repeat: 0
value: 59.863951
Number Constraints Used in Cover:465
GRASP Method!
Number cuts repeat: 0
value: 59.863951
Number Constraints Used in Cover:467
GRASP Method!
Number cuts repeat: 0
value: 59.863951
Number Constraints Used in Cover:469
GRASP Method!
Number cuts repeat: 0
value: 59.863951
Number Constraints Used in Cover:471
GRASP Method!
Number cuts repeat: 0
value: 59.863951
Number Constraints Used in Cover:473
GRASP Method!
Number cuts repeat: 0
value: 59.863951
Number Constraints Used in Cover:474
GRASP Method!
Number cuts repeat: 0
value: 59.863951
Number Constraints Used in Cover:477
GRASP Method!
Number cuts repeat: 0
value: 59.863951
Number Constraints Used in Cover:477
GRASP Method!
Number cuts repeat: 0
value: 59.863951
Number Constraints Used in Cover:481
GRASP Method!
Number cuts repeat: 0
value: 59.863951
Number Constraints Used in Cover:482
GRASP Method!
Number cuts repeat: 0
value: 59.863951
Number Constraints Used in Cover:484
GRASP Method!
Number cuts repeat: 0
value: 59.863951
Number Constraints Used in Cover:484
GRASP Method!
Number cuts repeat: 0
value: 59.863951
Number Constraints Used in Cover:485
GRASP Method!
Number cuts repeat: 0
value: 59.863951
Number Constraints Used in Cover:485
GRASP Method!
Number cuts repeat: 0
value: 59.863951
Number Constraints Used in Cover:486
GRASP Method!
Number cuts repeat: 0
value: 59.863951
Number Constraints Used in Cover:489
GRASP Method!
Number cuts repeat: 0
value: 59.863951
Number Constraints Used in Cover:489
GRASP Method!
Number cuts repeat: 0
value: 59.863951
Number Constraints Used in Cover:493
GRASP Method!
Number cuts repeat: 0
value: 59.863951
Number Constraints Used in Cover:495
GRASP Method!
Number cuts repeat: 0
value: 59.863951
Number Constraints Used in Cover:495
GRASP Method!
Number cuts repeat: 0
value: 59.863951
Number Constraints Used in Cover:497
GRASP Method!
Number cuts repeat: 0
value: 59.863951
Number Constraints Used in Cover:499
GRASP Method!
Number cuts repeat: 0
value: 59.863951
Number Constraints Used in Cover:500
GRASP Method!
Number cuts repeat: 0
value: 59.863951
Number Constraints Used in Cover:500
GRASP Method!
Number cuts repeat: 0
value: 59.863951
Number Constraints Used in Cover:505
GRASP Method!
Number cuts repeat: 0
value: 59.863951
Number Constraints Used in Cover:508
GRASP Method!
Number cuts repeat: 0
value: 59.863951
Number Constraints Used in Cover:510
GRASP Method!
Number cuts repeat: 0
value: 59.863951
Number Constraints Used in Cover:511
GRASP Method!
Number cuts repeat: 0
value: 59.863951
Number Constraints Used in Cover:511
GRASP Method!
Number cuts repeat: 0
value: 59.863951
Number Constraints Used in Cover:513
GRASP Method!
Number cuts repeat: 0
value: 59.863951
Number Constraints Used in Cover:515
GRASP Method!
Number cuts repeat: 0
value: 59.863951
Number Constraints Used in Cover:515
GRASP Method!
Number cuts repeat: 0
value: 59.863951
Number Constraints Used in Cover:518
GRASP Method!
Number cuts repeat: 0
value: 59.863951
Number Constraints Used in Cover:518
GRASP Method!
Number cuts repeat: 0
value: 59.863951
Number Constraints Used in Cover:518
GRASP Method!
Number cuts repeat: 0
value: 59.863951
Number Constraints Used in Cover:521
GRASP Method!
Number cuts repeat: 0
value: 59.863951
Number Constraints Used in Cover:521
GRASP Method!
Number cuts repeat: 0
value: 59.863951
Number Constraints Used in Cover:521
GRASP Method!
Number cuts repeat: 0
value: 59.863951
Number Constraints Used in Cover:522
GRASP Method!
Number cuts repeat: 0
value: 59.863951
Number Constraints Used in Cover:522
GRASP Method!
Number cuts repeat: 0
value: 59.863951
Number Constraints Used in Cover:522
GRASP Method!
Number cuts repeat: 0
value: 59.863951
Number Constraints Used in Cover:523
GRASP Method!
Number cuts repeat: 0
value: 59.863951
Number Constraints Used in Cover:524
GRASP Method!
Number cuts repeat: 0
value: 59.863951
Number Constraints Used in Cover:524
GRASP Method!
Number cuts repeat: 0
value: 59.863951
Number Constraints Used in Cover:524
GRASP Method!
Number cuts repeat: 0
value: 59.863951
Number Constraints Used in Cover:527
GRASP Method!
Number cuts repeat: 0
value: 59.863951
Number Constraints Used in Cover:528
GRASP Method!
Number cuts repeat: 0
value: 59.863951
Number Constraints Used in Cover:530
GRASP Method!
Number cuts repeat: 0
value: 59.863951
Number Constraints Used in Cover:531
GRASP Method!
Number cuts repeat: 0
value: 59.863951
Number Constraints Used in Cover:538
GRASP Method!
Number cuts repeat: 0
value: 59.863951
Number Constraints Used in Cover:538
GRASP Method!
Number cuts repeat: 0
value: 59.863951
Number Constraints Used in Cover:538
GRASP Method!
Number cuts repeat: 0
value: 59.863951
Number Constraints Used in Cover:544
GRASP Method!
Number cuts repeat: 0
value: 59.863951
Number Constraints Used in Cover:544
GRASP Method!
Number cuts repeat: 0
value: 59.863951
Number Constraints Used in Cover:544
GRASP Method!
Number cuts repeat: 0
value: 59.863951
Number Constraints Used in Cover:548
GRASP Method!
Number cuts repeat: 0
value: 59.863951
Number Constraints Used in Cover:555
GRASP Method!
Number cuts repeat: 0
value: 59.863951
Number Constraints Used in Cover:556
GRASP Method!
Number cuts repeat: 0
value: 59.863951
Number Cuts Final: 551
